c Created with the Wolfram Language : www.wolfram.com
c 
p edge 70 345
e 2 3
e 1 5
e 5 6
e 3 7
e 1 8
e 7 9
e 7 11
e 6 12
e 2 13
e 8 13
e 9 13
e 5 15
e 7 15
e 15 16
e 14 17
e 12 18
e 6 19
e 7 19
e 12 19
e 3 20
e 6 20
e 7 20
e 16 20
e 5 21
e 8 21
e 9 21
e 10 21
e 11 21
e 4 22
e 7 22
e 10 22
e 11 22
e 12 22
e 21 22
e 1 23
e 4 23
e 10 23
e 18 23
e 19 23
e 1 24
e 6 24
e 16 24
e 20 24
e 17 25
e 18 25
e 20 25
e 24 25
e 1 26
e 6 26
e 20 26
e 22 26
e 7 27
e 10 27
e 13 27
e 17 27
e 12 28
e 24 28
e 27 28
e 15 29
e 19 29
e 21 29
e 25 29
e 26 29
e 27 29
e 26 30
e 28 30
e 8 31
e 20 31
e 24 31
e 30 31
e 1 32
e 9 32
e 17 32
e 20 32
e 22 32
e 24 32
e 12 33
e 19 33
e 26 33
e 28 33
e 12 34
e 13 34
e 24 34
e 25 34
e 4 35
e 12 35
e 17 35
e 18 35
e 23 35
e 33 35
e 7 36
e 11 36
e 20 36
e 25 36
e 32 36
e 3 37
e 6 37
e 13 37
e 23 37
e 25 37
e 32 37
e 5 38
e 7 38
e 20 38
e 25 38
e 28 38
e 1 39
e 6 39
e 21 39
e 23 39
e 24 39
e 28 39
e 35 39
e 37 39
e 1 40
e 6 40
e 9 40
e 22 40
e 25 40
e 26 40
e 28 40
e 1 41
e 3 41
e 4 41
e 7 41
e 9 41
e 14 41
e 20 41
e 34 41
e 35 41
e 4 42
e 12 42
e 17 42
e 20 42
e 26 42
e 36 42
e 2 43
e 9 43
e 12 43
e 16 43
e 19 43
e 23 43
e 25 43
e 32 43
e 33 43
e 36 43
e 37 43
e 9 44
e 16 44
e 21 44
e 36 44
e 12 45
e 15 45
e 26 45
e 29 45
e 30 45
e 31 45
e 36 45
e 39 45
e 44 45
e 2 46
e 3 46
e 7 46
e 8 46
e 10 46
e 12 46
e 15 46
e 40 46
e 45 46
e 14 47
e 16 47
e 17 47
e 23 47
e 24 47
e 25 47
e 37 47
e 9 48
e 12 48
e 27 48
e 30 48
e 31 48
e 38 48
e 45 48
e 5 49
e 28 49
e 31 49
e 37 49
e 39 49
e 40 49
e 43 49
e 15 50
e 21 50
e 29 50
e 41 50
e 4 51
e 9 51
e 23 51
e 30 51
e 31 51
e 32 51
e 33 51
e 35 51
e 39 51
e 4 52
e 11 52
e 40 52
e 4 53
e 20 53
e 27 53
e 34 53
e 38 53
e 42 53
e 44 53
e 48 53
e 49 53
e 50 53
e 2 54
e 10 54
e 13 54
e 18 54
e 26 54
e 31 54
e 40 54
e 49 54
e 14 55
e 19 55
e 22 55
e 25 55
e 26 55
e 38 55
e 41 55
e 42 55
e 47 55
e 48 55
e 51 55
e 4 56
e 5 56
e 10 56
e 14 56
e 18 56
e 23 56
e 30 56
e 35 56
e 36 56
e 52 56
e 13 57
e 15 57
e 37 57
e 39 57
e 46 57
e 1 58
e 13 58
e 14 58
e 17 58
e 18 58
e 30 58
e 33 58
e 34 58
e 41 58
e 46 58
e 53 58
e 54 58
e 8 59
e 19 59
e 39 59
e 41 59
e 50 59
e 3 60
e 4 60
e 11 60
e 58 60
e 6 61
e 10 61
e 12 61
e 25 61
e 37 61
e 52 61
e 58 61
e 12 62
e 27 62
e 28 62
e 29 62
e 33 62
e 39 62
e 42 62
e 57 62
e 11 63
e 24 63
e 29 63
e 35 63
e 50 63
e 52 63
e 13 64
e 19 64
e 42 64
e 52 64
e 54 64
e 61 64
e 62 64
e 7 65
e 9 65
e 11 65
e 16 65
e 25 65
e 49 65
e 62 65
e 20 66
e 28 66
e 34 66
e 38 66
e 41 66
e 43 66
e 25 67
e 28 67
e 31 67
e 40 67
e 50 67
e 52 67
e 57 67
e 62 67
e 66 67
e 6 68
e 17 68
e 30 68
e 32 68
e 45 68
e 61 68
e 67 68
e 23 69
e 36 69
e 38 69
e 41 69
e 46 69
e 54 69
e 60 69
e 1 70
e 33 70
e 36 70
e 40 70
e 43 70
e 48 70
e 51 70
e 56 70
e 65 70
e 66 70
